12 48 6 10
10 19 19 8 6 11 9 6 6 13 8 10 20 14 19 17 18 9 12 9 12 7 9 12 10 4 17 8 10 19 9 5 4 9 20 5 5 19 13 1 8 19 2 14 3 1 13 17 
5.44 0.9 5.7 6.88 0.62 1.17 2.15 6.73 6.29 5.67 3.08 3.91 5.45 3.1 1.05 2.1 4.18 2.99 5.84 4.62 0.75 4.88 2.9 4.97 6.05 0.38 4.67 7.12 7.84 6.62 3.29 1.76 6.96 2.6 1.85 5.11 3.6 3.74 0.54 1.4 4.92 7.99 6.55 5.92 3.03 5.48 6.34 7 
7.51 4.63 5 6.37 1.34 7.22 7.65 7.46 1.83 6.97 1.43 4.11 2.21 1.2 6.87 6.39 6.74 7.75 0.47 2.94 0.13 7.48 2.46 7.87 2.08 6.7 0 0.83 0.77 2.25 7.99 6.3 3.5 1.61 6.13 7.89 7.63 2.68 4.75 7.3 3.47 1.75 3.14 6.97 4.92 3.25 5.68 7.52 
0.82 3.78 4.34 4.57 5.78 0.61 3.12 5.54 6.69 7.15 3.01 6.72 6.44 7.51 6.26 2.08 6.83 4.01 0.1 1.41 5.2 1.3 1.44 0.33 5.26 1.12 0.58 6.75 1.8 2.02 3.51 4.26 1.75 3.73 6.73 6.67 3.89 4.33 4.91 5.34 7.92 0.79 5.65 3.67 2.72 0.16 1.42 4.34 
6.06 0.79 3.64 3.15 3.05 0.6 4.95 5.95 0.51 6.92 6.27 2.36 7.71 0.99 0.56 1.13 5.38 3.74 5.69 6.03 5.41 5.63 3.34 3.61 6.34 2.16 1.63 6.54 4.52 3.83 0.53 1.74 3.31 1.79 3.62 7.68 0.98 1.35 3.54 1.51 2.43 0.13 2.83 5.69 3.31 4.72 7.21 4.62 
7.29 1.37 6.28 1.72 0.61 0.15 1.8 4.72 2.64 1.98 5.53 4.9 2.55 6.25 5.8 2.03 0.31 4.6 4.13 2.22 3.77 0.12 7.69 4.54 6.84 5.08 7.87 2.57 3.65 7.64 5.93 4.32 7.69 1.59 3.01 2.2 0.38 1.22 0.8 0.75 0.54 4.43 4.27 0.41 7.59 0.22 6.82 6.32 
2.93 1.47 7.63 6.12 2.35 5.87 1.49 1.02 7.39 3.21 6.37 0.58 7.36 0.83 0.29 5.23 7.93 1.64 1.07 0.39 6.5 3.84 6.47 0.47 4.54 0.08 1.28 0.67 4.47 1.64 6.39 1.69 2.65 6.61 3.27 6.77 3.6 0.35 3.54 6.62 0.07 4.76 2.71 1.3 5.34 2.57 4.37 4.53 
4 4 4 4 4 4 4 4 4 4 4 4 4 4 4 4 4 4 4 4 4 4 4 4 4 4 4 4 4 4 4 4 4 4 4 4 4 4 4 4 4 4 4 4 4 4 4 4 
3.9 0.48 2.15 1.82 7.92 5.8 4.7 7.61 1.56 1.24 7.04 0.18 5.61 6.84 3.73 6.9 7.74 5.4 6.7 6.08 2.81 7.52 0.95 6.75 7.93 0.08 6.54 2.75 3 3.24 4.73 0.78 5.02 4.38 2.63 4.51 7.05 1.34 7.02 7.3 1.15 4.33 7.03 1.06 5.2 1.18 7.37 0.06 
1.31 0.6 6 6.95 6 7.95 7.14 7.59 6.94 3.9 7.9 3.76 4.26 7.58 0.34 5.91 1.75 1.08 6.98 1.01 3.29 1.36 3.23 6.45 3.35 7.84 0.81 2.7 3.72 1.75 0.91 2.4 1.38 6.28 5.17 7.73 1.15 1.43 0.46 6.07 3.32 2.59 0.25 4.16 1.74 0.07 1.45 5.46 
3.83 6.48 0.67 3.87 5.1 1.83 6.05 7.96 2.47 4.6 5.47 7.49 4.7 3.11 1.07 4.44 4.64 0.25 5.96 6.14 7.71 0.48 4.71 4.71 7.05 5.44 6.16 7.01 7.6 5.11 0.33 5.86 3.68 6.29 1.93 4.9 4.35 4.81 4.01 5.14 3.92 7.13 2.31 2.58 3.36 6.82 2.28 6.16 
6.02 7.35 2.9 4.92 4.4 4.56 6.42 2.79 3.96 3.21 4.62 1.85 0.93 4.69 0.7 6.74 5.44 2.56 1.24 3.62 2.04 4.57 3.43 1.15 6.52 3.95 4 3.18 7.79 2.56 1.51 5.58 7.4 4.32 4.06 7.71 7.44 3.26 7.63 3.88 0.64 3.96 2.26 2.87 0.75 0.66 0.17 4.1 
4.17 1.72 2.73 2.65 1.54 3.17 4.46 5.93 3.5 2.01 1.44 7 7.52 7.31 0.31 5.88 1.15 5.06 2.86 6.81 2.68 4.26 3.9 2.62 5.86 1.3 4.15 7.47 7.73 5.95 6.88 1.98 3.24 7.18 6.29 7.47 2.85 5.43 1.57 1.3 7.8 5.14 1.61 3.65 3.21 6.64 2.93 3.95 
1 1 1 1 1 1 1 1 1 1 1 1 1 1 1 1 1 1 1 1 1 1 1 1 1 1 1 1 1 1 1 1 1 1 1 1 1 1 1 1 1 1 1 1 1 1 1 1 
1 1 1 1 1 1 1 1 1 1 1 1 1 1 1 1 1 1 1 1 1 1 1 1 1 1 1 1 1 1 1 1 1 1 1 1 1 1 1 1 1 1 1 1 1 1 1 1 
1 1 1 1 1 1 1 1 1 1 1 1 1 1 1 1 1 1 1 1 1 1 1 1 1 1 1 1 1 1 1 1 1 1 1 1 1 1 1 1 1 1 1 1 1 1 1 1 
1 1 1 1 1 1 1 1 1 1 1 1 1 1 1 1 1 1 1 1 1 1 1 1 1 1 1 1 1 1 1 1 1 1 1 1 1 1 1 1 1 1 1 1 1 1 1 1 
1 1 1 1 1 1 1 1 1 1 1 1 1 1 1 1 1 1 1 1 1 1 1 1 1 1 1 1 1 1 1 1 1 1 1 1 1 1 1 1 1 1 1 1 1 1 1 1 
1 1 1 1 1 1 1 1 1 1 1 1 1 1 1 1 1 1 1 1 1 1 1 1 1 1 1 1 1 1 1 1 1 1 1 1 1 1 1 1 1 1 1 1 1 1 1 1 
1 1 1 1 1 1 1 1 1 1 1 1 1 1 1 1 1 1 1 1 1 1 1 1 1 1 1 1 1 1 1 1 1 1 1 1 1 1 1 1 1 1 1 1 1 1 1 1 
1 1 1 1 1 1 1 1 1 1 1 1 1 1 1 1 1 1 1 1 1 1 1 1 1 1 1 1 1 1 1 1 1 1 1 1 1 1 1 1 1 1 1 1 1 1 1 1 
1 1 1 1 1 1 1 1 1 1 1 1 1 1 1 1 1 1 1 1 1 1 1 1 1 1 1 1 1 1 1 1 1 1 1 1 1 1 1 1 1 1 1 1 1 1 1 1 
1 1 1 1 1 1 1 1 1 1 1 1 1 1 1 1 1 1 1 1 1 1 1 1 1 1 1 1 1 1 1 1 1 1 1 1 1 1 1 1 1 1 1 1 1 1 1 1 
1 1 1 1 1 1 1 1 1 1 1 1 1 1 1 1 1 1 1 1 1 1 1 1 1 1 1 1 1 1 1 1 1 1 1 1 1 1 1 1 1 1 1 1 1 1 1 1 
1 1 1 1 1 1 1 1 1 1 1 1 1 1 1 1 1 1 1 1 1 1 1 1 1 1 1 1 1 1 1 1 1 1 1 1 1 1 1 1 1 1 1 1 1 1 1 1 
0.01 0.01 0.01 0.01 0.01 0.01 0.01 0.01 0.01 0.01 0.01 0.01 0.01 0.01 0.01 0.01 0.01 0.01 0.01 0.01 0.01 0.01 0.01 0.01 0.01 0.01 0.01 0.01 0.01 0.01 0.01 0.01 0.01 0.01 0.01 0.01 0.01 0.01 0.01 0.01 0.01 0.01 0.01 0.01 0.01 0.01 0.01 0.01 
0.02 0.02 0.02 0.02 0.02 0.02 0.02 0.02 0.02 0.02 0.02 0.02 0.02 0.02 0.02 0.02 0.02 0.02 0.02 0.02 0.02 0.02 0.02 0.02 0.02 0.02 0.02 0.02 0.02 0.02 0.02 0.02 0.02 0.02 0.02 0.02 0.02 0.02 0.02 0.02 0.02 0.02 0.02 0.02 0.02 0.02 0.02 0.02 
0.03 0.03 0.03 0.03 0.03 0.03 0.03 0.03 0.03 0.03 0.03 0.03 0.03 0.03 0.03 0.03 0.03 0.03 0.03 0.03 0.03 0.03 0.03 0.03 0.03 0.03 0.03 0.03 0.03 0.03 0.03 0.03 0.03 0.03 0.03 0.03 0.03 0.03 0.03 0.03 0.03 0.03 0.03 0.03 0.03 0.03 0.03 0.03 
0.04 0.04 0.04 0.04 0.04 0.04 0.04 0.04 0.04 0.04 0.04 0.04 0.04 0.04 0.04 0.04 0.04 0.04 0.04 0.04 0.04 0.04 0.04 0.04 0.04 0.04 0.04 0.04 0.04 0.04 0.04 0.04 0.04 0.04 0.04 0.04 0.04 0.04 0.04 0.04 0.04 0.04 0.04 0.04 0.04 0.04 0.04 0.04 
0.05 0.05 0.05 0.05 0.05 0.05 0.05 0.05 0.05 0.05 0.05 0.05 0.05 0.05 0.05 0.05 0.05 0.05 0.05 0.05 0.05 0.05 0.05 0.05 0.05 0.05 0.05 0.05 0.05 0.05 0.05 0.05 0.05 0.05 0.05 0.05 0.05 0.05 0.05 0.05 0.05 0.05 0.05 0.05 0.05 0.05 0.05 0.05 
0.06 0.06 0.06 0.06 0.06 0.06 0.06 0.06 0.06 0.06 0.06 0.06 0.06 0.06 0.06 0.06 0.06 0.06 0.06 0.06 0.06 0.06 0.06 0.06 0.06 0.06 0.06 0.06 0.06 0.06 0.06 0.06 0.06 0.06 0.06 0.06 0.06 0.06 0.06 0.06 0.06 0.06 0.06 0.06 0.06 0.06 0.06 0.06 
0.07 0.07 0.07 0.07 0.07 0.07 0.07 0.07 0.07 0.07 0.07 0.07 0.07 0.07 0.07 0.07 0.07 0.07 0.07 0.07 0.07 0.07 0.07 0.07 0.07 0.07 0.07 0.07 0.07 0.07 0.07 0.07 0.07 0.07 0.07 0.07 0.07 0.07 0.07 0.07 0.07 0.07 0.07 0.07 0.07 0.07 0.07 0.07 
0.2 0.2 0.2 0.2 0.2 0.2 0.2 0.2 0.2 0.2 0.2 0.2 0.2 0.2 0.2 0.2 0.2 0.2 0.2 0.2 0.2 0.2 0.2 0.2 0.2 0.2 0.2 0.2 0.2 0.2 0.2 0.2 0.2 0.2 0.2 0.2 0.2 0.2 0.2 0.2 0.2 0.2 0.2 0.2 0.2 0.2 0.2 0.2 
0.4 0.4 0.4 0.4 0.4 0.4 0.4 0.4 0.4 0.4 0.4 0.4 0.4 0.4 0.4 0.4 0.4 0.4 0.4 0.4 0.4 0.4 0.4 0.4 0.4 0.4 0.4 0.4 0.4 0.4 0.4 0.4 0.4 0.4 0.4 0.4 0.4 0.4 0.4 0.4 0.4 0.4 0.4 0.4 0.4 0.4 0.4 0.4 
0.6 0.6 0.6 0.6 0.6 0.6 0.6 0.6 0.6 0.6 0.6 0.6 0.6 0.6 0.6 0.6 0.6 0.6 0.6 0.6 0.6 0.6 0.6 0.6 0.6 0.6 0.6 0.6 0.6 0.6 0.6 0.6 0.6 0.6 0.6 0.6 0.6 0.6 0.6 0.6 0.6 0.6 0.6 0.6 0.6 0.6 0.6 0.6 
0.8 0.8 0.8 0.8 0.8 0.8 0.8 0.8 0.8 0.8 0.8 0.8 0.8 0.8 0.8 0.8 0.8 0.8 0.8 0.8 0.8 0.8 0.8 0.8 0.8 0.8 0.8 0.8 0.8 0.8 0.8 0.8 0.8 0.8 0.8 0.8 0.8 0.8 0.8 0.8 0.8 0.8 0.8 0.8 0.8 0.8 0.8 0.8 
1 1 1 1 1 1 1 1 1 1 1 1 1 1 1 1 1 1 1 1 1 1 1 1 1 1 1 1 1 1 1 1 1 1 1 1 1 1 1 1 1 1 1 1 1 1 1 1 
